This is Ipopt version 3.10.0, running with linear solver ma27.

Number of nonzeros in equality constraint Jacobian...:        0
Number of nonzeros in inequality constraint Jacobian.:       16
Number of nonzeros in Lagrangian Hessian.............:        0

Total number of variables............................:       16
                     variables with only lower bounds:        0
                variables with lower and upper bounds:       16
                     variables with only upper bounds:        0
Total number of equality constraints.................:        0
Total number of inequality constraints...............:        1
        inequality constraints with only lower bounds:        0
   inequality constraints with lower and upper bounds:        0
        inequality constraints with only upper bounds:        1

iter    objective    inf_pr   inf_du lg(mu)  ||d||  lg(rg) alpha_du alpha_pr  ls
   0  2.6143153e-03 3.46e-01 9.96e-01   0.0 0.00e+00    -  0.00e+00 0.00e+00   0
   1  8.1756605e-03 0.00e+00 8.13e-01  -1.6 2.42e-02    -  1.00e+00 1.00e+00h  1
   2  6.8490822e-03 0.00e+00 2.52e-01  -2.6 8.26e-03    -  9.99e-01 1.00e+00h  1
   3  5.2196317e-03 0.00e+00 2.37e-01  -3.1 2.59e-02    -  1.00e+00 1.00e+00h  1
   4  5.1681039e-03 0.00e+00 5.47e-02  -4.2 1.58e-02    -  1.00e+00 1.00e+00h  1
   5  4.6343321e-03 5.86e-03 4.44e-02  -4.3 2.12e-02    -  1.00e+00 9.99e-01h  1
   6  4.5900935e-03 3.17e-03 2.52e-02  -5.3 4.17e-03    -  1.00e+00 1.00e+00h  1
   7  4.7845034e-03 0.00e+00 2.26e-02  -4.3 6.87e-03    -  1.00e+00 1.00e+00h  1
   8  4.6680157e-03 3.22e-03 1.63e-02  -4.9 8.31e-03    -  1.00e+00 1.00e+00h  1
   9  4.5988475e-03 2.51e-03 1.75e-02  -4.9 1.86e-02    -  1.00e+00 6.88e-01h  1
iter    objective    inf_pr   inf_du lg(mu)  ||d||  lg(rg) alpha_du alpha_pr  ls
  10  4.5969802e-03 0.00e+00 1.42e-02  -4.9 4.88e-03    -  1.00e+00 7.42e-01h  1
  11  4.6128614e-03 0.00e+00 1.18e-02  -5.9 2.61e-03    -  1.00e+00 1.00e+00H  1
  12  4.6674071e-03 0.00e+00 1.37e-02  -5.2 1.53e-03    -  1.00e+00 1.00e+00H  1
  13  4.6720252e-03 0.00e+00 6.48e-03  -6.1 1.28e-03    -  1.00e+00 9.80e-01H  1
  14  4.6614902e-03 0.00e+00 1.37e-03  -6.0 5.31e-04    -  1.00e+00 1.00e+00h  1
  15  4.6613754e-03 3.34e-05 1.21e-03  -7.5 2.72e-04    -  1.00e+00 1.53e-05h 17
  16  4.6617769e-03 0.00e+00 1.12e-02  -6.6 4.15e-05    -  1.00e+00 5.00e-01h  2

Number of Iterations....: 16

                                   (scaled)                 (unscaled)
Objective...............:   4.6617768651509199e-03    4.6617768651509199e-03
Dual infeasibility......:   1.1242779522181022e-02    1.1242779522181022e-02
Constraint violation....:   0.0000000000000000e+00    0.0000000000000000e+00
Complementarity.........:   4.9646586312663256e-07    4.9646586312663256e-07
Overall NLP error.......:   1.1242779522181022e-02    1.1242779522181022e-02


Number of objective function evaluations             = 40
Number of objective gradient evaluations             = 17
Number of equality constraint evaluations            = 0
Number of inequality constraint evaluations          = 40
Number of equality constraint Jacobian evaluations   = 0
Number of inequality constraint Jacobian evaluations = 17
Number of Lagrangian Hessian evaluations             = 0
Total CPU secs in IPOPT (w/o function evaluations)   =      0.103
Total CPU secs in NLP function evaluations           =  57536.451

EXIT: Stopping optimization at current point as requested by user.
